30605
45,89,192,215,218,282,334,389,535,715,734,775,838,850,946,984,1198,1314,1366,1622,1627,1660,1711,1743,1873,1915,2171,2382,2420,2529,2866,2918,2919,3011,3219,3415,3453,3544,3582,3605,3916,3957,3984,4091,4203,4328,4391,4531,4543,4545,4606,4629,4713,4748,4793,4831,4849,4997
